p cnf 469 1276
c weights 1.0 1.0 2.718281828459045 0.36787944117144233 2.718281828459045 0.36787944117144233 2.718281828459045 0.36787944117144233 2.718281828459045 0.36787944117144233 2.718281828459045 0.36787944117144233 2.718281828459045 0.36787944117144233 1.0 1.0 2.718281828459045 0.36787944117144233 2.718281828459045 0.36787944117144233 2.718281828459045 0.36787944117144233 1.0 1.0 2.718281828459045 0.36787944117144233 2.718281828459045 0.36787944117144233 2.718281828459045 0.36787944117144233 1.0 1.0 2.718281828459045 0.36787944117144233 2.718281828459045 0.36787944117144233 2.718281828459045 0.36787944117144233 2.718281828459045 0.36787944117144233 2.718281828459045 0.36787944117144233 2.718281828459045 0.36787944117144233 2.718281828459045 0.36787944117144233 1.0 1.0 2.718281828459045 0.36787944117144233 2.718281828459045 0.36787944117144233 2.718281828459045 0.36787944117144233 2.718281828459045 0.36787944117144233 2.718281828459045 0.36787944117144233 2.718281828459045 0.36787944117144233 2.718281828459045 0.36787944117144233 1.0 1.0 2.718281828459045 0.36787944117144233 2.718281828459045 0.36787944117144233 2.718281828459045 0.36787944117144233 2.718281828459045 0.36787944117144233 2.718281828459045 0.36787944117144233 1.0 1.0 2.718281828459045 0.36787944117144233 2.718281828459045 0.36787944117144233 1.0 1.0 2.718281828459045 0.36787944117144233 2.718281828459045 0.36787944117144233 2.718281828459045 0.36787944117144233 1.0 1.0 2.718281828459045 0.36787944117144233 2.718281828459045 0.36787944117144233 2.718281828459045 0.36787944117144233 2.718281828459045 0.36787944117144233 2.718281828459045 0.36787944117144233 2.718281828459045 0.36787944117144233 1.0 1.0 2.718281828459045 0.36787944117144233 2.718281828459045 0.36787944117144233 1.0 1.0 2.718281828459045 0.36787944117144233 2.718281828459045 0.36787944117144233 2.718281828459045 0.36787944117144233 2.718281828459045 0.36787944117144233 2.718281828459045 0.36787944117144233 1.0 1.0 2.718281828459045 0.36787944117144233 2.718281828459045 0.36787944117144233 2.718281828459045 0.36787944117144233 2.718281828459045 0.36787944117144233 1.0 1.0 2.718281828459045 0.36787944117144233 2.718281828459045 0.36787944117144233 2.718281828459045 0.36787944117144233 2.718281828459045 0.36787944117144233 2.718281828459045 0.36787944117144233 2.718281828459045 0.36787944117144233 1.0 1.0 2.718281828459045 0.36787944117144233 2.718281828459045 0.36787944117144233 2.718281828459045 0.36787944117144233 1.0 1.0 2.718281828459045 0.36787944117144233 2.718281828459045 0.36787944117144233 1.0 1.0 1.0 1.0 2.718281828459045 0.36787944117144233 2.718281828459045 0.36787944117144233 2.718281828459045 0.36787944117144233 2.718281828459045 0.36787944117144233 2.718281828459045 0.36787944117144233 2.718281828459045 0.36787944117144233 2.718281828459045 0.36787944117144233 2.718281828459045 0.36787944117144233 2.718281828459045 0.36787944117144233 2.718281828459045 0.36787944117144233 1.0 1.0 2.718281828459045 0.36787944117144233 2.718281828459045 0.36787944117144233 2.718281828459045 0.36787944117144233 2.718281828459045 0.36787944117144233 2.718281828459045 0.36787944117144233 2.718281828459045 0.36787944117144233 1.0 1.0 2.718281828459045 0.36787944117144233 2.718281828459045 0.36787944117144233 1.0 1.0 2.718281828459045 0.36787944117144233 2.718281828459045 0.36787944117144233 2.718281828459045 0.36787944117144233 2.718281828459045 0.36787944117144233 1.0 1.0 2.718281828459045 0.36787944117144233 2.718281828459045 0.36787944117144233 2.718281828459045 0.36787944117144233 2.718281828459045 0.36787944117144233 2.718281828459045 0.36787944117144233 1.0 1.0 2.718281828459045 0.36787944117144233 2.718281828459045 0.36787944117144233 2.718281828459045 0.36787944117144233 2.718281828459045 0.36787944117144233 1.0 1.0 2.718281828459045 0.36787944117144233 2.718281828459045 0.36787944117144233 2.718281828459045 0.36787944117144233 1.0 1.0 2.718281828459045 0.36787944117144233 2.718281828459045 0.36787944117144233 1.0 1.0 2.718281828459045 0.36787944117144233 2.718281828459045 0.36787944117144233 2.718281828459045 0.36787944117144233 2.718281828459045 0.36787944117144233 2.718281828459045 0.36787944117144233 1.0 1.0 2.718281828459045 0.36787944117144233 2.718281828459045 0.36787944117144233 2.718281828459045 0.36787944117144233 2.718281828459045 0.36787944117144233 2.718281828459045 0.36787944117144233 1.0 1.0 2.718281828459045 0.36787944117144233 2.718281828459045 0.36787944117144233 2.718281828459045 0.36787944117144233 2.718281828459045 0.36787944117144233 2.718281828459045 0.36787944117144233 2.718281828459045 0.36787944117144233 2.718281828459045 0.36787944117144233 1.0 1.0 1.0 1.0 2.718281828459045 0.36787944117144233 1.0 1.0 1.0 1.0 2.718281828459045 0.36787944117144233 2.718281828459045 0.36787944117144233 1.0 1.0 2.718281828459045 0.36787944117144233 2.718281828459045 0.36787944117144233 2.718281828459045 0.36787944117144233 2.718281828459045 0.36787944117144233 1.0 1.0 2.718281828459045 0.36787944117144233 2.718281828459045 0.36787944117144233 1.0 1.0 2.718281828459045 0.36787944117144233 2.718281828459045 0.36787944117144233 2.718281828459045 0.36787944117144233 2.718281828459045 0.36787944117144233 2.718281828459045 0.36787944117144233 2.718281828459045 0.36787944117144233 1.0 1.0 2.718281828459045 0.36787944117144233 2.718281828459045 0.36787944117144233 2.718281828459045 0.36787944117144233 1.0 1.0 2.718281828459045 0.36787944117144233 2.718281828459045 0.36787944117144233 1.0 1.0 2.718281828459045 0.36787944117144233 2.718281828459045 0.36787944117144233 1.0 1.0 2.718281828459045 0.36787944117144233 2.718281828459045 0.36787944117144233 2.718281828459045 0.36787944117144233 2.718281828459045 0.36787944117144233 2.718281828459045 0.36787944117144233 1.0 1.0 2.718281828459045 0.36787944117144233 2.718281828459045 0.36787944117144233 1.0 1.0 2.718281828459045 0.36787944117144233 2.718281828459045 0.36787944117144233 2.718281828459045 0.36787944117144233 2.718281828459045 0.36787944117144233 1.0 1.0 2.718281828459045 0.36787944117144233 2.718281828459045 0.36787944117144233 2.718281828459045 0.36787944117144233 1.0 1.0 2.718281828459045 0.36787944117144233 2.718281828459045 0.36787944117144233 2.718281828459045 0.36787944117144233 2.718281828459045 0.36787944117144233 1.0 1.0 2.718281828459045 0.36787944117144233 2.718281828459045 0.36787944117144233 2.718281828459045 0.36787944117144233 2.718281828459045 0.36787944117144233 2.718281828459045 0.36787944117144233 1.0 1.0 2.718281828459045 0.36787944117144233 2.718281828459045 0.36787944117144233 2.718281828459045 0.36787944117144233 2.718281828459045 0.36787944117144233 2.718281828459045 0.36787944117144233 1.0 1.0 2.718281828459045 0.36787944117144233 2.718281828459045 0.36787944117144233 2.718281828459045 0.36787944117144233 2.718281828459045 0.36787944117144233 1.0 1.0 2.718281828459045 0.36787944117144233 2.718281828459045 0.36787944117144233 2.718281828459045 0.36787944117144233 2.718281828459045 0.36787944117144233 1.0 1.0 2.718281828459045 0.36787944117144233 2.718281828459045 0.36787944117144233 1.0 1.0 2.718281828459045 0.36787944117144233 2.718281828459045 0.36787944117144233 1.0 1.0 2.718281828459045 0.36787944117144233 2.718281828459045 0.36787944117144233 2.718281828459045 0.36787944117144233 2.718281828459045 0.36787944117144233 1.0 1.0 2.718281828459045 0.36787944117144233 2.718281828459045 0.36787944117144233 2.718281828459045 0.36787944117144233 2.718281828459045 0.36787944117144233 2.718281828459045 0.36787944117144233 1.0 1.0 2.718281828459045 0.36787944117144233 1.0 1.0 2.718281828459045 0.36787944117144233 1.0 1.0 2.718281828459045 0.36787944117144233 2.718281828459045 0.36787944117144233 2.718281828459045 0.36787944117144233 2.718281828459045 0.36787944117144233 2.718281828459045 0.36787944117144233 1.0 1.0 2.718281828459045 0.36787944117144233 2.718281828459045 0.36787944117144233 2.718281828459045 0.36787944117144233 2.718281828459045 0.36787944117144233 2.718281828459045 0.36787944117144233 1.0 1.0 2.718281828459045 0.36787944117144233 1.0 1.0 2.718281828459045 0.36787944117144233 2.718281828459045 0.36787944117144233 2.718281828459045 0.36787944117144233 1.0 1.0 2.718281828459045 0.36787944117144233 2.718281828459045 0.36787944117144233 2.718281828459045 0.36787944117144233 2.718281828459045 0.36787944117144233 2.718281828459045 0.36787944117144233 1.0 1.0 2.718281828459045 0.36787944117144233 1.0 1.0 2.718281828459045 0.36787944117144233 1.0 1.0 2.718281828459045 0.36787944117144233 1.0 1.0 2.718281828459045 0.36787944117144233 2.718281828459045 0.36787944117144233 1.0 1.0 2.718281828459045 0.36787944117144233 1.0 1.0 2.718281828459045 0.36787944117144233 2.718281828459045 0.36787944117144233 1.0 1.0 2.718281828459045 0.36787944117144233 2.718281828459045 0.36787944117144233 2.718281828459045 0.36787944117144233 2.718281828459045 0.36787944117144233 2.718281828459045 0.36787944117144233 1.0 1.0 2.718281828459045 0.36787944117144233 2.718281828459045 0.36787944117144233 1.0 1.0 2.718281828459045 0.36787944117144233 2.718281828459045 0.36787944117144233 2.718281828459045 0.36787944117144233 2.718281828459045 0.36787944117144233 1.0 1.0 2.718281828459045 0.36787944117144233 2.718281828459045 0.36787944117144233 2.718281828459045 0.36787944117144233 1.0 1.0 1.0 1.0 1.0 1.0 2.718281828459045 0.36787944117144233 1.0 1.0 2.718281828459045 0.36787944117144233 2.718281828459045 0.36787944117144233 1.0 1.0 2.718281828459045 0.36787944117144233 2.718281828459045 0.36787944117144233 1.0 1.0 2.718281828459045 0.36787944117144233 2.718281828459045 0.36787944117144233 2.718281828459045 0.36787944117144233 1.0 1.0 1.0 1.0 2.718281828459045 0.36787944117144233 2.718281828459045 0.36787944117144233 2.718281828459045 0.36787944117144233 1.0 1.0 2.718281828459045 0.36787944117144233 2.718281828459045 0.36787944117144233 2.718281828459045 0.36787944117144233 1.0 1.0 2.718281828459045 0.36787944117144233 1.0 1.0 2.718281828459045 0.36787944117144233 1.0 1.0 1.0 1.0 2.718281828459045 0.36787944117144233 2.718281828459045 0.36787944117144233 1.0 1.0 2.718281828459045 0.36787944117144233 2.718281828459045 0.36787944117144233 2.718281828459045 0.36787944117144233 1.0 1.0 1.0 1.0 2.718281828459045 0.36787944117144233 2.718281828459045 0.36787944117144233 1.0 1.0 2.718281828459045 0.36787944117144233 1.0 1.0 2.718281828459045 0.36787944117144233 2.718281828459045 0.36787944117144233 2.718281828459045 0.36787944117144233 1.0 1.0 2.718281828459045 0.36787944117144233 2.718281828459045 0.36787944117144233 1.0 1.0 2.718281828459045 0.36787944117144233 1.0 1.0 2.718281828459045 0.36787944117144233 2.718281828459045 0.36787944117144233 2.718281828459045 0.36787944117144233 2.718281828459045 0.36787944117144233 1.0 1.0 2.718281828459045 0.36787944117144233 2.718281828459045 0.36787944117144233 1.0 1.0 1.0 1.0 1.0 1.0 2.718281828459045 0.36787944117144233 1.0 1.0 2.718281828459045 0.36787944117144233 1.0 1.0 2.718281828459045 0.36787944117144233 2.718281828459045 0.36787944117144233 1.0 1.0 2.718281828459045 0.36787944117144233 2.718281828459045 0.36787944117144233 2.718281828459045 0.36787944117144233 1.0 1.0 2.718281828459045 0.36787944117144233 2.718281828459045 0.36787944117144233 2.718281828459045 0.36787944117144233 1.0 1.0 1.0 1.0 1.0 1.0 2.718281828459045 0.36787944117144233 1.0 1.0 2.718281828459045 0.36787944117144233 2.718281828459045 0.36787944117144233 2.718281828459045 0.36787944117144233 2.718281828459045 0.36787944117144233 2.718281828459045 0.36787944117144233 1.0 1.0 1.0 1.0 1.0 1.0 1.0 1.0 2.718281828459045 0.36787944117144233 1.0 1.0 1.0 1.0 2.718281828459045 0.36787944117144233 2.718281828459045 0.36787944117144233 2.718281828459045 0.36787944117144233 2.718281828459045 0.36787944117144233 1.0 1.0 2.718281828459045 0.36787944117144233 2.718281828459045 0.36787944117144233 2.718281828459045 0.36787944117144233 1.0 1.0 2.718281828459045 0.36787944117144233 2.718281828459045 0.36787944117144233 2.718281828459045 0.36787944117144233 1.0 1.0 2.718281828459045 0.36787944117144233 2.718281828459045 0.36787944117144233 1.0 1.0 2.718281828459045 0.36787944117144233 1.0 1.0 2.718281828459045 0.36787944117144233 1.0 1.0 2.718281828459045 0.36787944117144233 1.0 1.0 1.0 1.0 2.718281828459045 0.36787944117144233 1.0 1.0 2.718281828459045 0.36787944117144233 1.0 1.0 2.718281828459045 0.36787944117144233 2.718281828459045 0.36787944117144233 1.0 1.0 2.718281828459045 0.36787944117144233 2.718281828459045 0.36787944117144233 1.0 1.0 1.0 1.0 1.0 1.0 2.718281828459045 0.36787944117144233 2.718281828459045 0.36787944117144233 2.718281828459045 0.36787944117144233 1.0 1.0 2.718281828459045 0.36787944117144233 1.0 1.0 1.0 1.0 1.0 1.0 1.0 1.0 2.718281828459045 0.36787944117144233 2.718281828459045 0.36787944117144233 1.0 1.0 2.718281828459045 0.36787944117144233 1.0 1.0 1.0 1.0 2.718281828459045 0.36787944117144233 1.0 1.0 2.718281828459045 0.36787944117144233 2.718281828459045 0.36787944117144233 1.0 1.0 1.0 1.0 2.718281828459045 0.36787944117144233 1.0 1.0 1.0 1.0 2.718281828459045 0.36787944117144233 1.0 1.0 1.0 1.0 1.0 1.0 1.0 1.0 2.718281828459045 0.36787944117144233 1.0 1.0 1.0 1.0 1.0 1.0 1.0 1.0 1.0 1.0 1.0 1.0 1.0 1.0 2.718281828459045 0.36787944117144233 1.0 1.0 1.0 1.0 1.0 1.0 1.0 1.0 1.0 1.0 1.0 1.0
2 1 102 0
2 -1 -102 0
-2 1 -102 0
-2 -1 102 0
3 1 157 0
3 -1 -157 0
-3 1 -157 0
-3 -1 157 0
4 1 281 0
4 -1 -281 0
-4 1 -281 0
-4 -1 281 0
5 1 417 0
5 -1 -417 0
-5 1 -417 0
-5 -1 417 0
6 1 452 0
6 -1 -452 0
-6 1 -452 0
-6 -1 452 0
7 1 457 0
7 -1 -457 0
-7 1 -457 0
-7 -1 457 0
9 8 206 0
9 -8 -206 0
-9 8 -206 0
-9 -8 206 0
10 8 217 0
10 -8 -217 0
-10 8 -217 0
-10 -8 217 0
11 8 269 0
11 -8 -269 0
-11 8 -269 0
-11 -8 269 0
13 12 55 0
13 -12 -55 0
-13 12 -55 0
-13 -12 55 0
14 12 146 0
14 -12 -146 0
-14 12 -146 0
-14 -12 146 0
15 12 222 0
15 -12 -222 0
-15 12 -222 0
-15 -12 222 0
17 16 212 0
17 -16 -212 0
-17 16 -212 0
-17 -16 212 0
18 16 322 0
18 -16 -322 0
-18 16 -322 0
-18 -16 322 0
19 16 335 0
19 -16 -335 0
-19 16 -335 0
-19 -16 335 0
20 16 340 0
20 -16 -340 0
-20 16 -340 0
-20 -16 340 0
21 16 390 0
21 -16 -390 0
-21 16 -390 0
-21 -16 390 0
22 16 424 0
22 -16 -424 0
-22 16 -424 0
-22 -16 424 0
23 16 440 0
23 -16 -440 0
-23 16 -440 0
-23 -16 440 0
25 24 107 0
25 -24 -107 0
-25 24 -107 0
-25 -24 107 0
26 24 271 0
26 -24 -271 0
-26 24 -271 0
-26 -24 271 0
27 24 287 0
27 -24 -287 0
-27 24 -287 0
-27 -24 287 0
28 24 354 0
28 -24 -354 0
-28 24 -354 0
-28 -24 354 0
29 24 374 0
29 -24 -374 0
-29 24 -374 0
-29 -24 374 0
30 24 399 0
30 -24 -399 0
-30 24 -399 0
-30 -24 399 0
31 24 456 0
31 -24 -456 0
-31 24 -456 0
-31 -24 456 0
33 32 228 0
33 -32 -228 0
-33 32 -228 0
-33 -32 228 0
34 32 269 0
34 -32 -269 0
-34 32 -269 0
-34 -32 269 0
35 32 338 0
35 -32 -338 0
-35 32 -338 0
-35 -32 338 0
36 32 375 0
36 -32 -375 0
-36 32 -375 0
-36 -32 375 0
37 32 461 0
37 -32 -461 0
-37 32 -461 0
-37 -32 461 0
39 38 276 0
39 -38 -276 0
-39 38 -276 0
-39 -38 276 0
40 38 385 0
40 -38 -385 0
-40 38 -385 0
-40 -38 385 0
42 41 148 0
42 -41 -148 0
-42 41 -148 0
-42 -41 148 0
43 41 403 0
43 -41 -403 0
-43 41 -403 0
-43 -41 403 0
44 41 446 0
44 -41 -446 0
-44 41 -446 0
-44 -41 446 0
46 45 137 0
46 -45 -137 0
-46 45 -137 0
-46 -45 137 0
47 45 222 0
47 -45 -222 0
-47 45 -222 0
-47 -45 222 0
48 45 306 0
48 -45 -306 0
-48 45 -306 0
-48 -45 306 0
49 45 395 0
49 -45 -395 0
-49 45 -395 0
-49 -45 395 0
50 45 453 0
50 -45 -453 0
-50 45 -453 0
-50 -45 453 0
51 45 454 0
51 -45 -454 0
-51 45 -454 0
-51 -45 454 0
53 52 152 0
53 -52 -152 0
-53 52 -152 0
-53 -52 152 0
54 52 326 0
54 -52 -326 0
-54 52 -326 0
-54 -52 326 0
56 55 186 0
56 -55 -186 0
-56 55 -186 0
-56 -55 186 0
57 55 281 0
57 -55 -281 0
-57 55 -281 0
-57 -55 281 0
58 55 334 0
58 -55 -334 0
-58 55 -334 0
-58 -55 334 0
59 55 338 0
59 -55 -338 0
-59 55 -338 0
-59 -55 338 0
60 55 417 0
60 -55 -417 0
-60 55 -417 0
-60 -55 417 0
62 61 195 0
62 -61 -195 0
-62 61 -195 0
-62 -61 195 0
63 61 255 0
63 -61 -255 0
-63 61 -255 0
-63 -61 255 0
64 61 357 0
64 -61 -357 0
-64 61 -357 0
-64 -61 357 0
65 61 434 0
65 -61 -434 0
-65 61 -434 0
-65 -61 434 0
67 66 122 0
67 -66 -122 0
-67 66 -122 0
-67 -66 122 0
68 66 225 0
68 -66 -225 0
-68 66 -225 0
-68 -66 225 0
69 66 255 0
69 -66 -255 0
-69 66 -255 0
-69 -66 255 0
70 66 303 0
70 -66 -303 0
-70 66 -303 0
-70 -66 303 0
71 66 358 0
71 -66 -358 0
-71 66 -358 0
-71 -66 358 0
72 66 459 0
72 -66 -459 0
-72 66 -459 0
-72 -66 459 0
74 73 174 0
74 -73 -174 0
-74 73 -174 0
-74 -73 174 0
75 73 454 0
75 -73 -454 0
-75 73 -454 0
-75 -73 454 0
76 73 457 0
76 -73 -457 0
-76 73 -457 0
-76 -73 457 0
78 77 157 0
78 -77 -157 0
-78 77 -157 0
-78 -77 157 0
79 77 306 0
79 -77 -306 0
-79 77 -306 0
-79 -77 306 0
82 81 92 0
82 -81 -92 0
-82 81 -92 0
-82 -81 92 0
83 81 225 0
83 -81 -225 0
-83 81 -225 0
-83 -81 225 0
84 81 287 0
84 -81 -287 0
-84 81 -287 0
-84 -81 287 0
85 81 318 0
85 -81 -318 0
-85 81 -318 0
-85 -81 318 0
86 81 384 0
86 -81 -384 0
-86 81 -384 0
-86 -81 384 0
87 81 434 0
87 -81 -434 0
-87 81 -434 0
-87 -81 434 0
88 81 453 0
88 -81 -453 0
-88 81 -453 0
-88 -81 453 0
89 81 457 0
89 -81 -457 0
-89 81 -457 0
-89 -81 457 0
90 81 458 0
90 -81 -458 0
-90 81 -458 0
-90 -81 458 0
91 81 462 0
91 -81 -462 0
-91 81 -462 0
-91 -81 462 0
93 92 186 0
93 -92 -186 0
-93 92 -186 0
-93 -92 186 0
94 92 200 0
94 -92 -200 0
-94 92 -200 0
-94 -92 200 0
95 92 225 0
95 -92 -225 0
-95 92 -225 0
-95 -92 225 0
96 92 303 0
96 -92 -303 0
-96 92 -303 0
-96 -92 303 0
97 92 434 0
97 -92 -434 0
-97 92 -434 0
-97 -92 434 0
98 92 465 0
98 -92 -465 0
-98 92 -465 0
-98 -92 465 0
100 99 330 0
100 -99 -330 0
-100 99 -330 0
-100 -99 330 0
101 99 413 0
101 -99 -413 0
-101 99 -413 0
-101 -99 413 0
103 102 152 0
103 -102 -152 0
-103 102 -152 0
-103 -102 152 0
104 102 225 0
104 -102 -225 0
-104 102 -225 0
-104 -102 225 0
105 102 290 0
105 -102 -290 0
-105 102 -290 0
-105 -102 290 0
106 102 349 0
106 -102 -349 0
-106 102 -349 0
-106 -102 349 0
108 107 338 0
108 -107 -338 0
-108 107 -338 0
-108 -107 338 0
109 107 390 0
109 -107 -390 0
-109 107 -390 0
-109 -107 390 0
110 107 406 0
110 -107 -406 0
-110 107 -406 0
-110 -107 406 0
111 107 437 0
111 -107 -437 0
-111 107 -437 0
-111 -107 437 0
112 107 453 0
112 -107 -453 0
-112 107 -453 0
-112 -107 453 0
114 113 177 0
114 -113 -177 0
-114 113 -177 0
-114 -113 177 0
115 113 390 0
115 -113 -390 0
-115 113 -390 0
-115 -113 390 0
116 113 412 0
116 -113 -412 0
-116 113 -412 0
-116 -113 412 0
117 113 446 0
117 -113 -446 0
-117 113 -446 0
-117 -113 446 0
119 118 257 0
119 -118 -257 0
-119 118 -257 0
-119 -118 257 0
120 118 347 0
120 -118 -347 0
-120 118 -347 0
-120 -118 347 0
121 118 452 0
121 -118 -452 0
-121 118 -452 0
-121 -118 452 0
123 122 217 0
123 -122 -217 0
-123 122 -217 0
-123 -122 217 0
124 122 306 0
124 -122 -306 0
-124 122 -306 0
-124 -122 306 0
126 125 160 0
126 -125 -160 0
-126 125 -160 0
-126 -125 160 0
127 125 186 0
127 -125 -186 0
-127 125 -186 0
-127 -125 186 0
128 125 228 0
128 -125 -228 0
-128 125 -228 0
-128 -125 228 0
129 125 344 0
129 -125 -344 0
-129 125 -344 0
-129 -125 344 0
130 125 376 0
130 -125 -376 0
-130 125 -376 0
-130 -125 376 0
132 131 314 0
132 -131 -314 0
-132 131 -314 0
-132 -131 314 0
133 131 366 0
133 -131 -366 0
-133 131 -366 0
-133 -131 366 0
134 131 389 0
134 -131 -389 0
-134 131 -389 0
-134 -131 389 0
135 131 406 0
135 -131 -406 0
-135 131 -406 0
-135 -131 406 0
136 131 461 0
136 -131 -461 0
-136 131 -461 0
-136 -131 461 0
138 137 174 0
138 -137 -174 0
-138 137 -174 0
-138 -137 174 0
139 137 300 0
139 -137 -300 0
-139 137 -300 0
-139 -137 300 0
140 137 389 0
140 -137 -389 0
-140 137 -389 0
-140 -137 389 0
141 137 395 0
141 -137 -395 0
-141 137 -395 0
-141 -137 395 0
142 137 399 0
142 -137 -399 0
-142 137 -399 0
-142 -137 399 0
143 137 449 0
143 -137 -449 0
-143 137 -449 0
-143 -137 449 0
144 137 454 0
144 -137 -454 0
-144 137 -454 0
-144 -137 454 0
147 146 261 0
147 -146 -261 0
-147 146 -261 0
-147 -146 261 0
150 149 387 0
150 -149 -387 0
-150 149 -387 0
-150 -149 387 0
151 149 403 0
151 -149 -403 0
-151 149 -403 0
-151 -149 403 0
153 152 239 0
153 -152 -239 0
-153 152 -239 0
-153 -152 239 0
154 152 303 0
154 -152 -303 0
-154 152 -303 0
-154 -152 303 0
155 152 309 0
155 -152 -309 0
-155 152 -309 0
-155 -152 309 0
156 152 357 0
156 -152 -357 0
-156 152 -357 0
-156 -152 357 0
158 157 171 0
158 -157 -171 0
-158 157 -171 0
-158 -157 171 0
159 157 349 0
159 -157 -349 0
-159 157 -349 0
-159 -157 349 0
161 160 276 0
161 -160 -276 0
-161 160 -276 0
-161 -160 276 0
162 160 281 0
162 -160 -281 0
-162 160 -281 0
-162 -160 281 0
163 160 299 0
163 -160 -299 0
-163 160 -299 0
-163 -160 299 0
164 160 423 0
164 -160 -423 0
-164 160 -423 0
-164 -160 423 0
165 160 437 0
165 -160 -437 0
-165 160 -437 0
-165 -160 437 0
166 160 451 0
166 -160 -451 0
-166 160 -451 0
-166 -160 451 0
168 167 281 0
168 -167 -281 0
-168 167 -281 0
-168 -167 281 0
169 167 390 0
169 -167 -390 0
-169 167 -390 0
-169 -167 390 0
170 167 415 0
170 -167 -415 0
-170 167 -415 0
-170 -167 415 0
172 171 287 0
172 -171 -287 0
-172 171 -287 0
-172 -171 287 0
173 171 410 0
173 -171 -410 0
-173 171 -410 0
-173 -171 410 0
175 174 206 0
175 -174 -206 0
-175 174 -206 0
-175 -174 206 0
176 174 417 0
176 -174 -417 0
-176 174 -417 0
-176 -174 417 0
178 177 257 0
178 -177 -257 0
-178 177 -257 0
-178 -177 257 0
179 177 313 0
179 -177 -313 0
-179 177 -313 0
-179 -177 313 0
180 177 395 0
180 -177 -395 0
-180 177 -395 0
-180 -177 395 0
181 177 442 0
181 -177 -442 0
-181 177 -442 0
-181 -177 442 0
182 177 453 0
182 -177 -453 0
-182 177 -453 0
-182 -177 453 0
184 183 322 0
184 -183 -322 0
-184 183 -322 0
-184 -183 322 0
185 183 410 0
185 -183 -410 0
-185 183 -410 0
-185 -183 410 0
187 186 243 0
187 -186 -243 0
-187 186 -243 0
-187 -186 243 0
188 186 273 0
188 -186 -273 0
-188 186 -273 0
-188 -186 273 0
189 186 300 0
189 -186 -300 0
-189 186 -300 0
-189 -186 300 0
190 186 357 0
190 -186 -357 0
-190 186 -357 0
-190 -186 357 0
192 191 239 0
192 -191 -239 0
-192 191 -239 0
-192 -191 239 0
193 191 386 0
193 -191 -386 0
-193 191 -386 0
-193 -191 386 0
194 191 429 0
194 -191 -429 0
-194 191 -429 0
-194 -191 429 0
196 195 386 0
196 -195 -386 0
-196 195 -386 0
-196 -195 386 0
197 195 433 0
197 -195 -433 0
-197 195 -433 0
-197 -195 433 0
198 195 453 0
198 -195 -453 0
-198 195 -453 0
-198 -195 453 0
199 195 469 0
199 -195 -469 0
-199 195 -469 0
-199 -195 469 0
201 200 222 0
201 -200 -222 0
-201 200 -222 0
-201 -200 222 0
202 200 239 0
202 -200 -239 0
-202 200 -239 0
-202 -200 239 0
203 200 255 0
203 -200 -255 0
-203 200 -255 0
-203 -200 255 0
204 200 324 0
204 -200 -324 0
-204 200 -324 0
-204 -200 324 0
205 200 395 0
205 -200 -395 0
-205 200 -395 0
-205 -200 395 0
207 206 295 0
207 -206 -295 0
-207 206 -295 0
-207 -206 295 0
208 206 340 0
208 -206 -340 0
-208 206 -340 0
-208 -206 340 0
209 206 359 0
209 -206 -359 0
-209 206 -359 0
-209 -206 359 0
210 206 399 0
210 -206 -399 0
-210 206 -399 0
-210 -206 399 0
211 206 458 0
211 -206 -458 0
-211 206 -458 0
-211 -206 458 0
213 212 335 0
213 -212 -335 0
-213 212 -335 0
-213 -212 335 0
214 212 412 0
214 -212 -412 0
-214 212 -412 0
-214 -212 412 0
215 212 451 0
215 -212 -451 0
-215 212 -451 0
-215 -212 451 0
216 212 466 0
216 -212 -466 0
-216 212 -466 0
-216 -212 466 0
218 217 269 0
218 -217 -269 0
-218 217 -269 0
-218 -217 269 0
219 217 318 0
219 -217 -318 0
-219 217 -318 0
-219 -217 318 0
220 217 434 0
220 -217 -434 0
-220 217 -434 0
-220 -217 434 0
221 217 469 0
221 -217 -469 0
-221 217 -469 0
-221 -217 469 0
223 222 412 0
223 -222 -412 0
-223 222 -412 0
-223 -222 412 0
224 222 431 0
224 -222 -431 0
-224 222 -431 0
-224 -222 431 0
226 225 303 0
226 -225 -303 0
-226 225 -303 0
-226 -225 303 0
227 225 306 0
227 -225 -306 0
-227 225 -306 0
-227 -225 306 0
229 228 287 0
229 -228 -287 0
-229 228 -287 0
-229 -228 287 0
230 228 446 0
230 -228 -446 0
-230 228 -446 0
-230 -228 446 0
231 228 449 0
231 -228 -449 0
-231 228 -449 0
-231 -228 449 0
232 228 461 0
232 -228 -461 0
-232 228 -461 0
-232 -228 461 0
234 233 257 0
234 -233 -257 0
-234 233 -257 0
-234 -233 257 0
235 233 375 0
235 -233 -375 0
-235 233 -375 0
-235 -233 375 0
236 233 389 0
236 -233 -389 0
-236 233 -389 0
-236 -233 389 0
237 233 445 0
237 -233 -445 0
-237 233 -445 0
-237 -233 445 0
238 233 469 0
238 -233 -469 0
-238 233 -469 0
-238 -233 469 0
240 239 461 0
240 -239 -461 0
-240 239 -461 0
-240 -239 461 0
242 241 389 0
242 -241 -389 0
-242 241 -389 0
-242 -241 389 0
244 243 249 0
244 -243 -249 0
-244 243 -249 0
-244 -243 249 0
245 243 269 0
245 -243 -269 0
-245 243 -269 0
-245 -243 269 0
246 243 276 0
246 -243 -276 0
-246 243 -276 0
-246 -243 276 0
247 243 326 0
247 -243 -326 0
-247 243 -326 0
-247 -243 326 0
248 243 395 0
248 -243 -395 0
-248 243 -395 0
-248 -243 395 0
250 249 306 0
250 -249 -306 0
-250 249 -306 0
-250 -249 306 0
251 249 313 0
251 -249 -313 0
-251 249 -313 0
-251 -249 313 0
252 249 374 0
252 -249 -374 0
-252 249 -374 0
-252 -249 374 0
253 249 423 0
253 -249 -423 0
-253 249 -423 0
-253 -249 423 0
254 249 440 0
254 -249 -440 0
-254 249 -440 0
-254 -249 440 0
256 255 395 0
256 -255 -395 0
-256 255 -395 0
-256 -255 395 0
258 257 334 0
258 -257 -334 0
-258 257 -334 0
-258 -257 334 0
259 257 376 0
259 -257 -376 0
-259 257 -376 0
-259 -257 376 0
260 257 459 0
260 -257 -459 0
-260 257 -459 0
-260 -257 459 0
262 261 299 0
262 -261 -299 0
-262 261 -299 0
-262 -261 299 0
263 261 370 0
263 -261 -370 0
-263 261 -370 0
-263 -261 370 0
264 261 410 0
264 -261 -410 0
-264 261 -410 0
-264 -261 410 0
265 261 420 0
265 -261 -420 0
-265 261 -420 0
-265 -261 420 0
266 261 452 0
266 -261 -452 0
-266 261 -452 0
-266 -261 452 0
268 267 431 0
268 -267 -431 0
-268 267 -431 0
-268 -267 431 0
270 269 456 0
270 -269 -456 0
-270 269 -456 0
-270 -269 456 0
272 271 359 0
272 -271 -359 0
-272 271 -359 0
-272 -271 359 0
274 273 440 0
274 -273 -440 0
-274 273 -440 0
-274 -273 440 0
275 273 457 0
275 -273 -457 0
-275 273 -457 0
-275 -273 457 0
277 276 412 0
277 -276 -412 0
-277 276 -412 0
-277 -276 412 0
279 278 287 0
279 -278 -287 0
-279 278 -287 0
-279 -278 287 0
280 278 445 0
280 -278 -445 0
-280 278 -445 0
-280 -278 445 0
282 281 335 0
282 -281 -335 0
-282 281 -335 0
-282 -281 335 0
283 281 424 0
283 -281 -424 0
-283 281 -424 0
-283 -281 424 0
284 281 432 0
284 -281 -432 0
-284 281 -432 0
-284 -281 432 0
285 281 456 0
285 -281 -456 0
-285 281 -456 0
-285 -281 456 0
286 281 462 0
286 -281 -462 0
-286 281 -462 0
-286 -281 462 0
288 287 303 0
288 -287 -303 0
-288 287 -303 0
-288 -287 303 0
289 287 468 0
289 -287 -468 0
-289 287 -468 0
-289 -287 468 0
291 290 340 0
291 -290 -340 0
-291 290 -340 0
-291 -290 340 0
292 290 376 0
292 -290 -376 0
-292 290 -376 0
-292 -290 376 0
293 290 432 0
293 -290 -432 0
-293 290 -432 0
-293 -290 432 0
294 290 439 0
294 -290 -439 0
-294 290 -439 0
-294 -290 439 0
296 295 313 0
296 -295 -313 0
-296 295 -313 0
-296 -295 313 0
297 295 358 0
297 -295 -358 0
-297 295 -358 0
-297 -295 358 0
298 295 412 0
298 -295 -412 0
-298 295 -412 0
-298 -295 412 0
302 301 466 0
302 -301 -466 0
-302 301 -466 0
-302 -301 466 0
304 303 327 0
304 -303 -327 0
-304 303 -327 0
-304 -303 327 0
305 303 469 0
305 -303 -469 0
-305 303 -469 0
-305 -303 469 0
307 306 354 0
307 -306 -354 0
-307 306 -354 0
-307 -306 354 0
308 306 453 0
308 -306 -453 0
-308 306 -453 0
-308 -306 453 0
310 309 335 0
310 -309 -335 0
-310 309 -335 0
-310 -309 335 0
311 309 363 0
311 -309 -363 0
-311 309 -363 0
-311 -309 363 0
312 309 386 0
312 -309 -386 0
-312 309 -386 0
-312 -309 386 0
315 314 361 0
315 -314 -361 0
-315 314 -361 0
-315 -314 361 0
316 314 412 0
316 -314 -412 0
-316 314 -412 0
-316 -314 412 0
317 314 431 0
317 -314 -431 0
-317 314 -431 0
-317 -314 431 0
319 318 366 0
319 -318 -366 0
-319 318 -366 0
-319 -318 366 0
320 318 390 0
320 -318 -390 0
-320 318 -390 0
-320 -318 390 0
321 318 434 0
321 -318 -434 0
-321 318 -434 0
-321 -318 434 0
323 322 425 0
323 -322 -425 0
-323 322 -425 0
-323 -322 425 0
325 324 375 0
325 -324 -375 0
-325 324 -375 0
-325 -324 375 0
328 327 384 0
328 -327 -384 0
-328 327 -384 0
-328 -327 384 0
329 327 465 0
329 -327 -465 0
-329 327 -465 0
-329 -327 465 0
331 330 374 0
331 -330 -374 0
-331 330 -374 0
-331 -330 374 0
332 330 439 0
332 -330 -439 0
-332 330 -439 0
-332 -330 439 0
333 330 467 0
333 -330 -467 0
-333 330 -467 0
-333 -330 467 0
336 335 408 0
336 -335 -408 0
-336 335 -408 0
-336 -335 408 0
337 335 457 0
337 -335 -457 0
-337 335 -457 0
-337 -335 457 0
339 338 458 0
339 -338 -458 0
-339 338 -458 0
-339 -338 458 0
341 340 385 0
341 -340 -385 0
-341 340 -385 0
-341 -340 385 0
342 340 432 0
342 -340 -432 0
-342 340 -432 0
-342 -340 432 0
343 340 459 0
343 -340 -459 0
-343 340 -459 0
-343 -340 459 0
345 344 433 0
345 -344 -433 0
-345 344 -433 0
-345 -344 433 0
346 344 456 0
346 -344 -456 0
-346 344 -456 0
-346 -344 456 0
348 347 390 0
348 -347 -390 0
-348 347 -390 0
-348 -347 390 0
350 349 406 0
350 -349 -406 0
-350 349 -406 0
-350 -349 406 0
351 349 415 0
351 -349 -415 0
-351 349 -415 0
-351 -349 415 0
352 349 451 0
352 -349 -451 0
-352 349 -451 0
-352 -349 451 0
353 349 461 0
353 -349 -461 0
-353 349 -461 0
-353 -349 461 0
355 354 403 0
355 -354 -403 0
-355 354 -403 0
-355 -354 403 0
356 354 445 0
356 -354 -445 0
-356 354 -445 0
-356 -354 445 0
360 359 433 0
360 -359 -433 0
-360 359 -433 0
-360 -359 433 0
362 361 448 0
362 -361 -448 0
-362 361 -448 0
-362 -361 448 0
364 363 417 0
364 -363 -417 0
-364 363 -417 0
-364 -363 417 0
365 363 454 0
365 -363 -454 0
-365 363 -454 0
-365 -363 454 0
367 366 399 0
367 -366 -399 0
-367 366 -399 0
-367 -366 399 0
368 366 434 0
368 -366 -434 0
-368 366 -434 0
-368 -366 434 0
369 366 454 0
369 -366 -454 0
-369 366 -454 0
-369 -366 454 0
371 370 378 0
371 -370 -378 0
-371 370 -378 0
-371 -370 378 0
372 370 387 0
372 -370 -387 0
-372 370 -387 0
-372 -370 387 0
373 370 439 0
373 -370 -439 0
-373 370 -439 0
-373 -370 439 0
377 376 431 0
377 -376 -431 0
-377 376 -431 0
-377 -376 431 0
379 378 403 0
379 -378 -403 0
-379 378 -403 0
-379 -378 403 0
380 378 415 0
380 -378 -415 0
-380 378 -415 0
-380 -378 415 0
381 378 440 0
381 -378 -440 0
-381 378 -440 0
-381 -378 440 0
382 378 449 0
382 -378 -449 0
-382 378 -449 0
-382 -378 449 0
383 378 457 0
383 -378 -457 0
-383 378 -457 0
-383 -378 457 0
388 387 446 0
388 -387 -446 0
-388 387 -446 0
-388 -387 446 0
391 390 412 0
391 -390 -412 0
-391 390 -412 0
-391 -390 412 0
392 390 424 0
392 -390 -424 0
-392 390 -424 0
-392 -390 424 0
393 390 448 0
393 -390 -448 0
-393 390 -448 0
-393 -390 448 0
394 390 449 0
394 -390 -449 0
-394 390 -449 0
-394 -390 449 0
396 395 408 0
396 -395 -408 0
-396 395 -408 0
-396 -395 408 0
397 395 448 0
397 -395 -448 0
-397 395 -448 0
-397 -395 448 0
398 395 467 0
398 -395 -467 0
-398 395 -467 0
-398 -395 467 0
400 399 448 0
400 -399 -448 0
-400 399 -448 0
-400 -399 448 0
401 399 458 0
401 -399 -458 0
-401 399 -458 0
-401 -399 458 0
402 399 461 0
402 -399 -461 0
-402 399 -461 0
-402 -399 461 0
404 403 425 0
404 -403 -425 0
-404 403 -425 0
-404 -403 425 0
405 403 459 0
405 -403 -459 0
-405 403 -459 0
-405 -403 459 0
407 406 469 0
407 -406 -469 0
-407 406 -469 0
-407 -406 469 0
409 408 429 0
409 -408 -429 0
-409 408 -429 0
-409 -408 429 0
411 410 417 0
411 -410 -417 0
-411 410 -417 0
-411 -410 417 0
414 413 462 0
414 -413 -462 0
-414 413 -462 0
-414 -413 462 0
416 415 448 0
416 -415 -448 0
-416 415 -448 0
-416 -415 448 0
418 417 440 0
418 -417 -440 0
-418 417 -440 0
-418 -417 440 0
419 417 445 0
419 -417 -445 0
-419 417 -445 0
-419 -417 445 0
421 420 448 0
421 -420 -448 0
-421 420 -448 0
-421 -420 448 0
422 420 449 0
422 -420 -449 0
-422 420 -449 0
-422 -420 449 0
426 425 439 0
426 -425 -439 0
-426 425 -439 0
-426 -425 439 0
427 425 440 0
427 -425 -440 0
-427 425 -440 0
-427 -425 440 0
428 425 466 0
428 -425 -466 0
-428 425 -466 0
-428 -425 466 0
430 429 454 0
430 -429 -454 0
-430 429 -454 0
-430 -429 454 0
435 434 449 0
435 -434 -449 0
-435 434 -449 0
-435 -434 449 0
436 434 456 0
436 -434 -456 0
-436 434 -456 0
-436 -434 456 0
438 437 449 0
438 -437 -449 0
-438 437 -449 0
-438 -437 449 0
441 440 459 0
441 -440 -459 0
-441 440 -459 0
-441 -440 459 0
443 442 452 0
443 -442 -452 0
-443 442 -452 0
-443 -442 452 0
444 442 469 0
444 -442 -469 0
-444 442 -469 0
-444 -442 469 0
447 446 468 0
447 -446 -468 0
-447 446 -468 0
-447 -446 468 0
450 449 460 0
450 -449 -460 0
-450 449 -460 0
-450 -449 460 0
455 454 457 0
455 -454 -457 0
-455 454 -457 0
-455 -454 457 0
463 462 466 0
463 -462 -466 0
-463 462 -466 0
-463 -462 466 0
